c CNF file corresponding to a (partial) station packing problem.
p cnf 2631 229
1 2 3 4 5 6 7 8 9 10 11 12 13 14 0
-1 -2 0
-1 -3 0
-1 -4 0
-1 -5 0
-1 -6 0
-1 -7 0
-1 -8 0
-1 -9 0
-1 -10 0
-1 -11 0
-1 -12 0
-1 -13 0
-1 -14 0
-2 -3 0
-2 -4 0
-2 -5 0
-2 -6 0
-2 -7 0
-2 -8 0
-2 -9 0
-2 -10 0
-2 -11 0
-2 -12 0
-2 -13 0
-2 -14 0
-3 -4 0
-3 -5 0
-3 -6 0
-3 -7 0
-3 -8 0
-3 -9 0
-3 -10 0
-3 -11 0
-3 -12 0
-3 -13 0
-3 -14 0
-4 -5 0
-4 -6 0
-4 -7 0
-4 -8 0
-4 -9 0
-4 -10 0
-4 -11 0
-4 -12 0
-4 -13 0
-4 -14 0
-5 -6 0
-5 -7 0
-5 -8 0
-5 -9 0
-5 -10 0
-5 -11 0
-5 -12 0
-5 -13 0
-5 -14 0
-6 -7 0
-6 -8 0
-6 -9 0
-6 -10 0
-6 -11 0
-6 -12 0
-6 -13 0
-6 -14 0
-7 -8 0
-7 -9 0
-7 -10 0
-7 -11 0
-7 -12 0
-7 -13 0
-7 -14 0
-8 -9 0
-8 -10 0
-8 -11 0
-8 -12 0
-8 -13 0
-8 -14 0
-9 -10 0
-9 -11 0
-9 -12 0
-9 -13 0
-9 -14 0
-10 -11 0
-10 -12 0
-10 -13 0
-10 -14 0
-11 -12 0
-11 -13 0
-11 -14 0
-12 -13 0
-12 -14 0
-13 -14 0
2615 2616 2617 2618 2619 2620 2621 2622 2623 2624 2625 2626 2627 2628 2629 2630 2631 0
-2615 -2616 0
-2615 -2617 0
-2615 -2618 0
-2615 -2619 0
-2615 -2620 0
-2615 -2621 0
-2615 -2622 0
-2615 -2623 0
-2615 -2624 0
-2615 -2625 0
-2615 -2626 0
-2615 -2627 0
-2615 -2628 0
-2615 -2629 0
-2615 -2630 0
-2615 -2631 0
-2616 -2617 0
-2616 -2618 0
-2616 -2619 0
-2616 -2620 0
-2616 -2621 0
-2616 -2622 0
-2616 -2623 0
-2616 -2624 0
-2616 -2625 0
-2616 -2626 0
-2616 -2627 0
-2616 -2628 0
-2616 -2629 0
-2616 -2630 0
-2616 -2631 0
-2617 -2618 0
-2617 -2619 0
-2617 -2620 0
-2617 -2621 0
-2617 -2622 0
-2617 -2623 0
-2617 -2624 0
-2617 -2625 0
-2617 -2626 0
-2617 -2627 0
-2617 -2628 0
-2617 -2629 0
-2617 -2630 0
-2617 -2631 0
-2618 -2619 0
-2618 -2620 0
-2618 -2621 0
-2618 -2622 0
-2618 -2623 0
-2618 -2624 0
-2618 -2625 0
-2618 -2626 0
-2618 -2627 0
-2618 -2628 0
-2618 -2629 0
-2618 -2630 0
-2618 -2631 0
-2619 -2620 0
-2619 -2621 0
-2619 -2622 0
-2619 -2623 0
-2619 -2624 0
-2619 -2625 0
-2619 -2626 0
-2619 -2627 0
-2619 -2628 0
-2619 -2629 0
-2619 -2630 0
-2619 -2631 0
-2620 -2621 0
-2620 -2622 0
-2620 -2623 0
-2620 -2624 0
-2620 -2625 0
-2620 -2626 0
-2620 -2627 0
-2620 -2628 0
-2620 -2629 0
-2620 -2630 0
-2620 -2631 0
-2621 -2622 0
-2621 -2623 0
-2621 -2624 0
-2621 -2625 0
-2621 -2626 0
-2621 -2627 0
-2621 -2628 0
-2621 -2629 0
-2621 -2630 0
-2621 -2631 0
-2622 -2623 0
-2622 -2624 0
-2622 -2625 0
-2622 -2626 0
-2622 -2627 0
-2622 -2628 0
-2622 -2629 0
-2622 -2630 0
-2622 -2631 0
-2623 -2624 0
-2623 -2625 0
-2623 -2626 0
-2623 -2627 0
-2623 -2628 0
-2623 -2629 0
-2623 -2630 0
-2623 -2631 0
-2624 -2625 0
-2624 -2626 0
-2624 -2627 0
-2624 -2628 0
-2624 -2629 0
-2624 -2630 0
-2624 -2631 0
-2625 -2626 0
-2625 -2627 0
-2625 -2628 0
-2625 -2629 0
-2625 -2630 0
-2625 -2631 0
-2626 -2627 0
-2626 -2628 0
-2626 -2629 0
-2626 -2630 0
-2626 -2631 0
-2627 -2628 0
-2627 -2629 0
-2627 -2630 0
-2627 -2631 0
-2628 -2629 0
-2628 -2630 0
-2628 -2631 0
-2629 -2630 0
-2629 -2631 0
-2630 -2631 0
